
--- Job DIETER.gms Start 10/26/18 12:08:25 24.2.3 r46072 WEX-WEI x86_64/MS Windows
GAMS 24.2.3   Copyright (C) 1987-2014 GAMS Development. All rights reserved
Licensee: Medium MUD - 10 User License                   S170316:1123AO-GEN
          Deutsches Institut fuer Wirtschaftsforschung DIW, AbteilungDC3975
          License for teaching and research at degree granting institutions
          License_Admin:_Claudia_Kemfert,_bbibra@diw.de____________________
--- Starting compilation
--- DIETER.gms(153) 3 Mb
--- .dataload.gms(405) 3 Mb
--- GDXin=C:\Users\cguenther\Documents\GitHub\prosumage\Code\Prosumage_Opt\Dieter_Module\Original\Data_input.gdx
--- .dataload.gms(457) 3 Mb
--- GDXin=C:\Users\cguenther\Documents\GitHub\prosumage\Code\Prosumage_Opt\Dieter_Module\Original\time_series.gdx
--- .dataload.gms(787) 25 Mb
--- DIETER.gms(296) 25 Mb
--- .model.gms(1347) 25 Mb
--- DIETER.gms(475) 25 Mb
--- .fix.gms(315) 25 Mb
--- DIETER.gms(476) 25 Mb
--- .scenario.gms(122) 25 Mb
--- DIETER.gms(635) 25 Mb
--- .report.gms(1411) 25 Mb
--- DIETER.gms(666) 26 Mb
--- Starting execution: elapsed 0:00:00.094
--- DIETER.gms(3202) 206 Mb
---
--- collecting and writing gdx file 
---
--- Generating LP model DIETER
--- DIETER.gms(3202) 361 Mb
---   429,276 rows  543,140 columns  2,085,936 non-zeroes
---   131,408 nl-code  96,362 nl-non-zeroes
--- DIETER.gms(3202) 358 Mb
--- Executing CPLEX: elapsed 0:00:45.881

GUSS             24.2.3 r46072 Released May 22, 2014 WEI x86_64/MS Windows    
Reading parameter(s) from scenario dictionary
>>  Logoption 2
>>  Optfile 1
>>  Skipbasecase 1
--- Scenario Variable with potential updates identified: phi_min_res
--- Scenario Variable with potential updates identified: phi_pro_self

IBM ILOG CPLEX   24.2.3 r46072 Released May 22, 2014 WEI x86_64/MS Windows    
--- GAMS/Cplex licensed for continuous and discrete problems.
Cplex 12.6.0.0

Reading parameter(s) from "C:\Users\cguenther\Documents\GitHub\prosumage\Code\Prosumage_Opt\Dieter_Module\Original\cplex.opt"
>>  lpmethod 4
>>  threads 4
>>  epgap 1e-3
Finished reading from "C:\Users\cguenther\Documents\GitHub\prosumage\Code\Prosumage_Opt\Dieter_Module\Original\cplex.opt"
Reading data...
Starting Cplex...
Space for names approximately 33.52 Mb
Use option 'names no' to turn use of names off
Tried aggregator 1 time.
LP Presolve eliminated 16548 rows and 128295 columns.
Aggregator did 12953 substitutions.
Reduced LP has 399775 rows, 401892 columns, and 1601121 nonzeros.
Presolve time = 0.67 sec. (629.04 ticks)
Parallel mode: using up to 4 threads for barrier.

***NOTE: Found 19 dense columns.

Number of nonzeros in lower triangle of A*A' = 1723100
Using Approximate Minimum Degree ordering
Total time for automatic ordering = 0.28 sec. (206.70 ticks)
Summary statistics for Cholesky factor:
  Threads                   = 4
  Rows in Factor            = 399794
  Integer space required    = 1268356
  Total non-zeros in factor = 6080211
  Total FP ops to factor    = 149381539
 Itn      Primal Obj        Dual Obj  Prim Inf Upper Inf  Dual Inf Inf Ratio
   0  4.6967929e+012 -4.8252835e+012 3.44e+011 2.18e+007 2.94e+010 1.00e+000
   1  3.0315182e+011 -1.6531113e+012 1.35e+010 8.59e+005 1.06e+010 3.95e-008
   2  2.5829309e+011 -3.4681112e+011 1.08e+010 6.89e+005 2.58e+009 1.20e-008
   3  1.9787556e+011 -1.3943621e+011 7.74e+009 4.92e+005 1.22e+009 2.34e-008
   4  2.9530027e+011 -2.2227091e+011 1.19e+010 7.57e+005 1.87e+009 1.00e-008
   5  1.3712252e+011 -7.5567735e+009 3.56e+009 2.27e+005 4.94e+008 1.82e-008
   6  8.3003410e+010  4.7051983e+009 4.99e+008 3.17e+004 4.20e+008 3.58e-008
   7  7.8434948e+010  5.4674169e+010 2.73e+008 1.73e+004 1.12e+008 2.68e-007
   8  7.2894955e+010  5.5574499e+010 2.05e+008 1.30e+004 4.96e+007 6.85e-007
   9  6.4835437e+010  5.3688127e+010 1.44e+008 9.18e+003 4.04e+007 9.05e-007
  10  5.7689000e+010  5.2604713e+010 8.08e+007 5.14e+003 3.18e+007 1.28e-006
  11  5.1664555e+010  4.7757464e+010 4.76e+007 3.03e+003 1.57e+007 2.78e-006
  12  4.7953974e+010  4.5105573e+010 3.30e+007 2.10e+003 1.06e+007 4.41e-006
  13  4.5220505e+010  4.3416136e+010 2.33e+007 1.48e+003 7.82e+006 6.34e-006
  14  4.3776628e+010  4.2546227e+010 1.85e+007 1.17e+003 6.50e+006 7.87e-006
  15  4.2631572e+010  4.1795542e+010 1.48e+007 9.39e+002 5.42e+006 9.77e-006
  16  4.1944758e+010  4.1531749e+010 1.22e+007 7.77e+002 4.96e+006 1.08e-005
  17  4.1045028e+010  4.0909785e+010 9.62e+006 6.12e+002 4.16e+006 1.33e-005
  18  4.0387392e+010  4.0295931e+010 7.81e+006 4.97e+002 3.40e+006 1.70e-005
  19  3.9814305e+010  3.9834214e+010 6.34e+006 4.03e+002 2.87e+006 2.08e-005
  20  3.9371553e+010  3.9381564e+010 5.28e+006 3.36e+002 2.38e+006 2.61e-005
  21  3.8898243e+010  3.9071543e+010 4.22e+006 2.68e+002 2.07e+006 3.08e-005
  22  3.8659915e+010  3.8800839e+010 3.70e+006 2.35e+002 1.80e+006 3.63e-005
  23  3.8472465e+010  3.8510402e+010 3.32e+006 2.11e+002 1.53e+006 4.40e-005
  24  3.8253894e+010  3.8206929e+010 2.89e+006 1.84e+002 1.27e+006 5.52e-005
  25  3.7948841e+010  3.7947375e+010 2.33e+006 1.48e+002 1.05e+006 6.88e-005
  26  3.7766560e+010  3.7778007e+010 2.01e+006 1.28e+002 9.18e+005 8.08e-005
  27  3.7572252e+010  3.7626420e+010 1.69e+006 1.07e+002 8.02e+005 9.47e-005
  28  3.7430916e+010  3.7499496e+010 1.45e+006 9.22e+001 7.07e+005 1.10e-004
  29  3.7255966e+010  3.7354033e+010 1.17e+006 7.42e+001 6.00e+005 1.33e-004
  30  3.7150921e+010  3.7318018e+010 1.00e+006 6.38e+001 5.75e+005 1.40e-004
  31  3.7092373e+010  3.7220075e+010 9.11e+005 5.79e+001 5.05e+005 1.64e-004
  32  3.7019496e+010  3.7072886e+010 8.02e+005 5.10e+001 4.04e+005 2.13e-004
  33  3.6885885e+010  3.6975277e+010 6.17e+005 3.93e+001 3.42e+005 2.59e-004
  34  3.6830997e+010  3.6928024e+010 5.43e+005 3.45e+001 3.12e+005 2.88e-004
  35  3.6747787e+010  3.6904786e+010 4.34e+005 2.76e+001 2.98e+005 3.05e-004
  36  3.6653301e+010  3.6855658e+010 3.08e+005 1.96e+001 2.68e+005 3.47e-004
  37  3.6646694e+010  3.6833465e+010 2.99e+005 1.90e+001 2.54e+005 3.69e-004
  38  3.6634449e+010  3.6789006e+010 2.84e+005 1.80e+001 2.27e+005 4.20e-004
  39  3.6574872e+010  3.6736245e+010 2.12e+005 1.35e+001 1.97e+005 4.99e-004
  40  3.6535537e+010  3.6654249e+010 1.66e+005 1.06e+001 1.50e+005 6.89e-004
  41  3.6526484e+010  3.6643687e+010 1.57e+005 9.99e+000 1.44e+005 7.20e-004
  42  3.6494979e+010  3.6612488e+010 1.25e+005 7.97e+000 1.28e+005 8.31e-004
  43  3.6449565e+010  3.6575605e+010 8.09e+004 5.14e+000 1.09e+005 1.01e-003
  44  3.6433387e+010  3.6529308e+010 6.56e+004 4.17e+000 8.48e+004 1.35e-003
  45  3.6407921e+010  3.6500488e+010 4.43e+004 2.82e+000 7.08e+004 1.67e-003
  46  3.6400869e+010  3.6479138e+010 3.87e+004 2.46e+000 6.06e+004 2.00e-003
  47  3.6377624e+010  3.6427939e+010 2.18e+004 1.38e+000 3.70e+004 3.62e-003
  48  3.6363664e+010  3.6413097e+010 1.35e+004 8.62e-001 3.07e+004 4.49e-003
  49  3.6357380e+010  3.6394796e+010 9.93e+003 6.36e-001 2.30e+004 6.28e-003
  50  3.6352025e+010  3.6389333e+010 7.28e+003 4.66e-001 2.09e+004 7.04e-003
  51  3.6347962e+010  3.6385666e+010 5.08e+003 3.39e-001 1.94e+004 7.67e-003
  52  3.6345500e+010  3.6369573e+010 3.93e+003 2.63e-001 1.30e+004 1.24e-002
  53  3.6343245e+010  3.6361503e+010 3.11e+003 2.07e-001 9.96e+003 1.69e-002
  54  3.6341808e+010  3.6354678e+010 2.87e+003 1.75e-001 7.48e+003 2.34e-002
  55  3.6338281e+010  3.6347880e+010 2.09e+003 1.02e-001 5.11e+003 3.59e-002
  56  3.6335625e+010  3.6343292e+010 1.88e+003 5.04e-002 3.53e+003 5.47e-002
  57  3.6334680e+010  3.6340709e+010 1.21e+003 3.31e-002 2.65e+003 7.59e-002
  58  3.6333476e+010  3.6336199e+010 5.31e+002 1.46e-002 1.19e+003 1.84e-001
  59  3.6332877e+010  3.6335599e+010 2.25e+002 5.91e-003 9.99e+002 2.25e-001
  60  3.6332559e+010  3.6333229e+010 9.47e+001 2.35e-003 2.71e+002 8.88e-001
  61  3.6332411e+010  3.6332599e+010 3.36e+001 7.84e-004 7.96e+001 3.43e+000
  62  3.6332356e+010  3.6332413e+010 1.27e+001 2.90e-004 2.58e+001 1.08e+001
  63  3.6332335e+010  3.6332336e+010 4.65e+000 1.06e-004 3.61e+000 8.37e+001
  64  3.6332327e+010  3.6332325e+010 1.19e+002 2.80e-005 5.65e-001 5.34e+002
  65  3.6332324e+010  3.6332323e+010 6.65e+000 1.58e-006 3.11e-002 9.65e+003
  66  3.6332323e+010  3.6332323e+010 2.13e+001 9.78e-008 1.56e-003 1.92e+005
Barrier time = 15.90 sec. (13623.28 ticks)
Parallel mode: deterministic, using up to 4 threads for concurrent optimization.

Dual crossover.
  Dual:  Fixing 191151 variables.
   191150 DMoves:  Infeasibility 1.62252835e-006  Objective 3.63323233e+010
   189408 DMoves:  Infeasibility 1.62253680e-006  Objective 3.63323233e+010
   188364 DMoves:  Infeasibility 1.62259687e-006  Objective 3.63323233e+010
   186655 DMoves:  Infeasibility 1.62259482e-006  Objective 3.63323233e+010
   185789 DMoves:  Infeasibility 1.62257178e-006  Objective 3.63323233e+010
   185153 DMoves:  Infeasibility 1.62258449e-006  Objective 3.63323233e+010
   183496 DMoves:  Infeasibility 1.62264291e-006  Objective 3.63323233e+010
   175692 DMoves:  Infeasibility 1.62264247e-006  Objective 3.63323233e+010
   170678 DMoves:  Infeasibility 1.62263916e-006  Objective 3.63323233e+010
   168068 DMoves:  Infeasibility 1.62264472e-006  Objective 3.63323233e+010
   165714 DMoves:  Infeasibility 1.62259501e-006  Objective 3.63323233e+010
   162549 DMoves:  Infeasibility 1.62256067e-006  Objective 3.63323233e+010
   143678 DMoves:  Infeasibility 1.62264479e-006  Objective 3.63323233e+010
   139904 DMoves:  Infeasibility 1.62256001e-006  Objective 3.63323233e+010
   136179 DMoves:  Infeasibility 1.62256601e-006  Objective 3.63323233e+010
   130220 DMoves:  Infeasibility 1.62259189e-006  Objective 3.63323233e+010
   122624 DMoves:  Infeasibility 1.62260097e-006  Objective 3.63323233e+010
   120937 DMoves:  Infeasibility 1.62255760e-006  Objective 3.63323233e+010
    95991 DMoves:  Infeasibility 1.62268892e-006  Objective 3.63323233e+010
    92347 DMoves:  Infeasibility 1.62265039e-006  Objective 3.63323233e+010
    88419 DMoves:  Infeasibility 1.62269792e-006  Objective 3.63323233e+010
    85047 DMoves:  Infeasibility 1.62271103e-006  Objective 3.63323233e+010
    80212 DMoves:  Infeasibility 1.62270676e-006  Objective 3.63323233e+010
    71903 DMoves:  Infeasibility 1.62265098e-006  Objective 3.63323233e+010
    59210 DMoves:  Infeasibility 1.62257098e-006  Objective 3.63323233e+010
    53629 DMoves:  Infeasibility 1.62255695e-006  Objective 3.63323233e+010
    39516 DMoves:  Infeasibility 1.62257021e-006  Objective 3.63323233e+010
    30063 DMoves:  Infeasibility 1.62257306e-006  Objective 3.63323233e+010
   Elapsed crossover time = 6.36 sec. (10000.08 ticks, 612 DMoves)
        0 DMoves:  Infeasibility 1.35122749e-010  Objective 3.63323233e+010
  Dual:  Pushed 148194, exchanged 42957.
  Primal:  Fixing 8578 variables.
     8577 PMoves:  Infeasibility 1.05581608e-001  Objective 3.63323233e+010
     6664 PMoves:  Infeasibility 1.05277123e-001  Objective 3.63323233e+010
     4453 PMoves:  Infeasibility 7.38772632e-002  Objective 3.63323233e+010
     2257 PMoves:  Infeasibility 1.43630980e-008  Objective 3.63323233e+010
        0 PMoves:  Infeasibility 1.48737260e-008  Objective 3.63323233e+010
  Primal:  Pushed 2625, exchanged 5953.
Reinitializing dual norms . . .

Dual simplex solved model.

Total crossover time = 25.79 sec. (13641.76 ticks)

Total time on 4 threads = 42.40 sec. (27910.04 ticks)
LP status(1): optimal
Cplex Time: 42.40sec (det. 27911.27 ticks)

Optimal solution found.
Objective : 36332323331.362358

--- Scenario scen1:     Records read:    2
--- Solution statistics for scenario scen1
---   Solver Status    1 Normal Completion         
---   Model Status     1 Optimal                   
---   Objective Value  36332323331.3624
---   Resource Usage   43025
---   Total Time (ms)  43165
--- Restarting execution
--- DIETER.gms(3202) 231 Mb
--- Reading solution for model DIETER
--- Executing after solve: elapsed 0:01:30.482
--- DIETER.gms(3202) 232 Mb
---
--- scattering and reading gdx file 
---
--- DIETER.gms(3202) 232 Mb
--- marginal Id = con5a_minRES maps to marginal_con5a
--- marginal Id = con1a_bal maps to marginal_con1a
--- level    Id = Z maps to lev_Z
--- level    Id = G_L maps to lev_G_L
--- level    Id = G_UP maps to lev_G_UP
--- level    Id = G_DO maps to lev_G_DO
--- level    Id = G_RES maps to lev_G_RES
--- level    Id = CU maps to lev_CU
--- level    Id = STO_IN maps to lev_STO_IN
--- level    Id = STO_OUT maps to lev_STO_OUT
--- level    Id = STO_L maps to lev_STO_L
--- level    Id = N_TECH maps to lev_N_TECH
--- level    Id = N_STO_E maps to lev_N_STO_E
--- level    Id = N_STO_P maps to lev_N_STO_P
--- level    Id = NTC maps to lev_NTC
--- level    Id = F maps to lev_F
--- level    Id = RSVR_OUT maps to lev_RSVR_OUT
--- level    Id = RSVR_L maps to lev_RSVR_L
--- level    Id = N_RSVR_E maps to lev_N_RSVR_E
--- level    Id = N_RSVR_P maps to lev_N_RSVR_P
--- level    Id = CU_PRO maps to lev_CU_PRO
--- level    Id = G_MARKET_PRO2M maps to lev_G_MARKET_PRO2M
--- level    Id = G_MARKET_M2PRO maps to lev_G_MARKET_M2PRO
--- level    Id = G_RES_PRO maps to lev_G_RES_PRO
--- level    Id = STO_IN_PRO2PRO maps to lev_STO_IN_PRO2PRO
--- level    Id = STO_IN_PRO2M maps to lev_STO_IN_PRO2M
--- level    Id = STO_IN_M2PRO maps to lev_STO_IN_M2PRO
--- level    Id = STO_IN_M2M maps to lev_STO_IN_M2M
--- level    Id = STO_OUT_PRO2PRO maps to lev_STO_OUT_PRO2PRO
--- level    Id = STO_OUT_PRO2M maps to lev_STO_OUT_PRO2M
--- level    Id = STO_OUT_M2PRO maps to lev_STO_OUT_M2PRO
--- level    Id = STO_OUT_M2M maps to lev_STO_OUT_M2M
--- level    Id = STO_L_PRO maps to lev_STO_L_PRO
--- level    Id = STO_L_PRO2PRO maps to lev_STO_L_PRO2PRO
--- level    Id = STO_L_PRO2M maps to lev_STO_L_PRO2M
--- level    Id = STO_L_M2PRO maps to lev_STO_L_M2PRO
--- level    Id = STO_L_M2M maps to lev_STO_L_M2M
--- level    Id = N_STO_E_PRO maps to lev_N_STO_E_PRO
--- level    Id = N_STO_P_PRO maps to lev_N_STO_P_PRO
--- level    Id = N_RES_PRO maps to lev_N_RES_PRO
--- level    Id = G_INFES maps to lev_G_INFES
--- DIETER.gms(3202) 234 Mb
--- Scatter finished in 156 ms
--- DIETER.gms(4620) 236 Mb
--- GDX File C:\Users\cguenther\Documents\GitHub\prosumage\Code\Prosumage_Opt\Dieter_Module\Original\test.gdx
*** Status: Normal completion
--- Job DIETER.gms Stop 10/26/18 12:09:57 elapsed 0:01:32.151
